InboundTrucks  = 8;
OutboundTrucks = 5;
InboundDoors   = 4;
OutboundDoors  = 4;
ReleaseTime    = [25,58,14,22,0,80,80,37];
UnloadTime     = [27,32,26,32,37,34,21,40];
LoadTime       = [15,7,7,6,8];
TransferTime   = [| 11,25,0,0,0 | 23,19,32,0,30 | 0,0,0,49,31 | 0,0,50,0,19 | 40,13,0,0,31 | 44,22,30,0,0 | 15,0,34,0,0 | 0,17,15,0,0 |];
